Route #1: 32 40 3 50 10 17 46
Route #2: 22 56 6
Route #3: 1 27 18 28 9 55 31
Route #4: 45 24 52 54 43
Route #5: 12 38 48 35 49 30 4
Route #6: 20 44 13 19 34 14 42
Route #7: 16 26 39 23 2 7
Route #8: 5 47 36 21 41 29 53
Route #9: 8 15 25 51 37 11 33
Cost 1602
Time 0.100546
